Please solve the following SAT Problem encoded in DIMACS format, only return a single solution assignment without explanations, if there is any: 
p cnf 10 50
4 -10 1 0
4 -5 -8 0
-10 1 9 0
8 2 -10 0
10 6 9 0
6 -7 -10 0
-3 1 -5 0
9 -3 -6 0
-5 3 -4 0
-5 2 -3 0
9 -5 1 0
3 2 8 0
-4 9 1 0
-8 6 -9 0
2 -3 -8 0
1 -3 -7 0
-4 1 -8 0
10 -5 3 0
-3 6 -5 0
-3 6 -5 0
1 -5 7 0
-7 -5 3 0
-10 1 -3 0
-4 2 1 0
-10 -5 -4 0
8 -3 7 0
10 -5 1 0
2 1 -7 0
-10 -8 -4 0
-7 10 -4 0
-10 -8 -7 0
-5 -10 -4 0
-8 -4 -3 0
-3 -4 -2 0
9 -8 -4 0
-5 -4 1 0
-4 -3 9 0
-8 -7 -10 0
2 -4 -3 0
2 4 -8 0
1 6 -7 0
-8 -5 -10 0
9 -1 -10 0
-5 -3 -6 0
-9 -10 -7 0
1 -10 -5 0
-4 -6 9 0
-9 -10 2 0
-5 -3 -4 0
2 -5 3 0

